data;

set A := 531 800 779 372 253 805 700 27 514 293 868 895 804 319 105 726 858 465 415 783 576 269 351 141 296 318 233 916 728 273 962 656 434 237 527 956 615 828 565 504 824 696 31 174 443 404 5 132 239 687 567 190 221 391 365 439 896 278 117 369 589 216 276 235 306 411 450 604 123 25 562 808 529 966 898 48 426 600 844 187 955 624 160 498 729 9 536 215;
param T := 22000;

end;
